NAME : obs.obs
TIME : 2020-10-28 21:48:40
COMMENT : hello world
DIMENSION : 12
OBSTACLE_SECTION
0 86.7244 79.2339
1 66.3526 84.0726
2 59.2791 64.7177
3 77.3873 40.9274
4 84.1779 23.9919
5 57.8644 18.5484
6 42.0196 42.5403
7 29.0043 53.2258
8 17.1208 52.6210
9 12.5937 42.3387
10 15.7061 25.8065
11 20.5161 14.5161
EOF
